Route #1: 17 51 16 63 1 22 64 42 43 41 56 23 49 24 3 44
Route #2: 6 33 73 62 28 61 21 74 2 68 75
Route #3: 7 35 53 14 59 11 66 65 38 10 58
Route #4: 4 45 29 5 37 20 70 60 71 69 36 47 48 30
Route #5: 34 52 27 15 57 13 54 19 8 46 67
Route #6: 26 12 72 39 9 31 25 55 18 50 32 40
Cost 662.629691